\ENCODING=ISO-8859-1
\Problem name: ilog.cplex

Minimize
 obj: 20 x_0_1_0 + 20 x_0_1_1 + 20 x_0_1_2 + 20 x_0_1_3 + 20 x_0_1_4
      + 20 x_0_1_5 + 20 x_0_1_6 + 20 x_0_1_7 + 20 x_0_1_8 + 20 x_0_1_9
      + 30 x_0_2_0 + 30 x_0_2_1 + 30 x_0_2_2 + 30 x_0_2_3 + 30 x_0_2_4
      + 30 x_0_2_5 + 30 x_0_2_6 + 30 x_0_2_7 + 30 x_0_2_8 + 30 x_0_2_9
      + 40 x_0_3_0 + 40 x_0_3_1 + 40 x_0_3_2 + 40 x_0_3_3 + 40 x_0_3_4
      + 40 x_0_3_5 + 40 x_0_3_6 + 40 x_0_3_7 + 40 x_0_3_8 + 40 x_0_3_9
      + 0 x_0_0_0 + 10 x_1_0_0 + 30 x_1_2_0 + 20 x_1_3_0 + 20 x_2_0_0
      + 30 x_2_1_0 + 10 x_2_3_0 + 30 x_3_0_0 + 20 x_3_1_0 + 10 x_3_2_0
      + 0 x_0_0_1 + 10 x_1_0_1 + 30 x_1_2_1 + 20 x_1_3_1 + 20 x_2_0_1
      + 30 x_2_1_1 + 10 x_2_3_1 + 30 x_3_0_1 + 20 x_3_1_1 + 10 x_3_2_1
      + 0 x_0_0_2 + 10 x_1_0_2 + 30 x_1_2_2 + 20 x_1_3_2 + 20 x_2_0_2
      + 30 x_2_1_2 + 10 x_2_3_2 + 30 x_3_0_2 + 20 x_3_1_2 + 10 x_3_2_2
      + 0 x_0_0_3 + 10 x_1_0_3 + 30 x_1_2_3 + 20 x_1_3_3 + 20 x_2_0_3
      + 30 x_2_1_3 + 10 x_2_3_3 + 30 x_3_0_3 + 20 x_3_1_3 + 10 x_3_2_3
      + 0 x_0_0_4 + 10 x_1_0_4 + 30 x_1_2_4 + 20 x_1_3_4 + 20 x_2_0_4
      + 30 x_2_1_4 + 10 x_2_3_4 + 30 x_3_0_4 + 20 x_3_1_4 + 10 x_3_2_4
      + 0 x_0_0_5 + 10 x_1_0_5 + 30 x_1_2_5 + 20 x_1_3_5 + 20 x_2_0_5
      + 30 x_2_1_5 + 10 x_2_3_5 + 30 x_3_0_5 + 20 x_3_1_5 + 10 x_3_2_5
      + 0 x_0_0_6 + 10 x_1_0_6 + 30 x_1_2_6 + 20 x_1_3_6 + 20 x_2_0_6
      + 30 x_2_1_6 + 10 x_2_3_6 + 30 x_3_0_6 + 20 x_3_1_6 + 10 x_3_2_6
      + 0 x_0_0_7 + 10 x_1_0_7 + 30 x_1_2_7 + 20 x_1_3_7 + 20 x_2_0_7
      + 30 x_2_1_7 + 10 x_2_3_7 + 30 x_3_0_7 + 20 x_3_1_7 + 10 x_3_2_7
      + 0 x_0_0_8 + 10 x_1_0_8 + 30 x_1_2_8 + 20 x_1_3_8 + 20 x_2_0_8
      + 30 x_2_1_8 + 10 x_2_3_8 + 30 x_3_0_8 + 20 x_3_1_8 + 10 x_3_2_8
      + 0 x_0_0_9 + 10 x_1_0_9 + 30 x_1_2_9 + 20 x_1_3_9 + 20 x_2_0_9
      + 30 x_2_1_9 + 10 x_2_3_9 + 30 x_3_0_9 + 20 x_3_1_9 + 10 x_3_2_9
Subject To
 c1:   x_1_0_0 + x_1_1_0 + x_1_2_0 + x_1_3_0 + x_1_0_1 + x_1_1_1 + x_1_2_1
       + x_1_3_1 + x_1_0_2 + x_1_1_2 + x_1_2_2 + x_1_3_2 + x_1_0_3 + x_1_1_3
       + x_1_2_3 + x_1_3_3 + x_1_0_4 + x_1_1_4 + x_1_2_4 + x_1_3_4 + x_1_0_5
       + x_1_1_5 + x_1_2_5 + x_1_3_5 + x_1_0_6 + x_1_1_6 + x_1_2_6 + x_1_3_6
       + x_1_0_7 + x_1_1_7 + x_1_2_7 + x_1_3_7 + x_1_0_8 + x_1_1_8 + x_1_2_8
       + x_1_3_8 + x_1_0_9 + x_1_1_9 + x_1_2_9 + x_1_3_9 >= 1
 c3:   x_2_0_0 + x_2_1_0 + x_2_2_0 + x_2_3_0 + x_2_0_1 + x_2_1_1 + x_2_2_1
       + x_2_3_1 + x_2_0_2 + x_2_1_2 + x_2_2_2 + x_2_3_2 + x_2_0_3 + x_2_1_3
       + x_2_2_3 + x_2_3_3 + x_2_0_4 + x_2_1_4 + x_2_2_4 + x_2_3_4 + x_2_0_5
       + x_2_1_5 + x_2_2_5 + x_2_3_5 + x_2_0_6 + x_2_1_6 + x_2_2_6 + x_2_3_6
       + x_2_0_7 + x_2_1_7 + x_2_2_7 + x_2_3_7 + x_2_0_8 + x_2_1_8 + x_2_2_8
       + x_2_3_8 + x_2_0_9 + x_2_1_9 + x_2_2_9 + x_2_3_9 >= 1
 c5:   x_3_0_0 + x_3_1_0 + x_3_2_0 + x_3_3_0 + x_3_0_1 + x_3_1_1 + x_3_2_1
       + x_3_3_1 + x_3_0_2 + x_3_1_2 + x_3_2_2 + x_3_3_2 + x_3_0_3 + x_3_1_3
       + x_3_2_3 + x_3_3_3 + x_3_0_4 + x_3_1_4 + x_3_2_4 + x_3_3_4 + x_3_0_5
       + x_3_1_5 + x_3_2_5 + x_3_3_5 + x_3_0_6 + x_3_1_6 + x_3_2_6 + x_3_3_6
       + x_3_0_7 + x_3_1_7 + x_3_2_7 + x_3_3_7 + x_3_0_8 + x_3_1_8 + x_3_2_8
       + x_3_3_8 + x_3_0_9 + x_3_1_9 + x_3_2_9 + x_3_3_9 >= 1
 c7:   - x_0_1_0 + x_1_0_0 + x_1_2_0 + x_1_3_0 - x_2_1_0 - x_3_1_0  = 0
 c9:   - x_0_1_1 + x_1_0_1 + x_1_2_1 + x_1_3_1 - x_2_1_1 - x_3_1_1  = 0
 c11:  - x_0_1_2 + x_1_0_2 + x_1_2_2 + x_1_3_2 - x_2_1_2 - x_3_1_2  = 0
 c13:  - x_0_1_3 + x_1_0_3 + x_1_2_3 + x_1_3_3 - x_2_1_3 - x_3_1_3  = 0
 c15:  - x_0_1_4 + x_1_0_4 + x_1_2_4 + x_1_3_4 - x_2_1_4 - x_3_1_4  = 0
 c17:  - x_0_1_5 + x_1_0_5 + x_1_2_5 + x_1_3_5 - x_2_1_5 - x_3_1_5  = 0
 c19:  - x_0_1_6 + x_1_0_6 + x_1_2_6 + x_1_3_6 - x_2_1_6 - x_3_1_6  = 0
 c21:  - x_0_1_7 + x_1_0_7 + x_1_2_7 + x_1_3_7 - x_2_1_7 - x_3_1_7  = 0
 c23:  - x_0_1_8 + x_1_0_8 + x_1_2_8 + x_1_3_8 - x_2_1_8 - x_3_1_8  = 0
 c25:  - x_0_1_9 + x_1_0_9 + x_1_2_9 + x_1_3_9 - x_2_1_9 - x_3_1_9  = 0
 c26:  - x_0_2_0 - x_1_2_0 + x_2_0_0 + x_2_1_0 + x_2_3_0 - x_3_2_0  = 0
 c27:  - x_0_2_1 - x_1_2_1 + x_2_0_1 + x_2_1_1 + x_2_3_1 - x_3_2_1  = 0
 c28:  - x_0_2_2 - x_1_2_2 + x_2_0_2 + x_2_1_2 + x_2_3_2 - x_3_2_2  = 0
 c29:  - x_0_2_3 - x_1_2_3 + x_2_0_3 + x_2_1_3 + x_2_3_3 - x_3_2_3  = 0
 c30:  - x_0_2_4 - x_1_2_4 + x_2_0_4 + x_2_1_4 + x_2_3_4 - x_3_2_4  = 0
 c31:  - x_0_2_5 - x_1_2_5 + x_2_0_5 + x_2_1_5 + x_2_3_5 - x_3_2_5  = 0
 c32:  - x_0_2_6 - x_1_2_6 + x_2_0_6 + x_2_1_6 + x_2_3_6 - x_3_2_6  = 0
 c33:  - x_0_2_7 - x_1_2_7 + x_2_0_7 + x_2_1_7 + x_2_3_7 - x_3_2_7  = 0
 c34:  - x_0_2_8 - x_1_2_8 + x_2_0_8 + x_2_1_8 + x_2_3_8 - x_3_2_8  = 0
 c35:  - x_0_2_9 - x_1_2_9 + x_2_0_9 + x_2_1_9 + x_2_3_9 - x_3_2_9  = 0
 c36:  - x_0_3_0 - x_1_3_0 - x_2_3_0 + x_3_0_0 + x_3_1_0 + x_3_2_0  = 0
 c37:  - x_0_3_1 - x_1_3_1 - x_2_3_1 + x_3_0_1 + x_3_1_1 + x_3_2_1  = 0
 c38:  - x_0_3_2 - x_1_3_2 - x_2_3_2 + x_3_0_2 + x_3_1_2 + x_3_2_2  = 0
 c39:  - x_0_3_3 - x_1_3_3 - x_2_3_3 + x_3_0_3 + x_3_1_3 + x_3_2_3  = 0
 c40:  - x_0_3_4 - x_1_3_4 - x_2_3_4 + x_3_0_4 + x_3_1_4 + x_3_2_4  = 0
 c41:  - x_0_3_5 - x_1_3_5 - x_2_3_5 + x_3_0_5 + x_3_1_5 + x_3_2_5  = 0
 c42:  - x_0_3_6 - x_1_3_6 - x_2_3_6 + x_3_0_6 + x_3_1_6 + x_3_2_6  = 0
 c43:  - x_0_3_7 - x_1_3_7 - x_2_3_7 + x_3_0_7 + x_3_1_7 + x_3_2_7  = 0
 c44:  - x_0_3_8 - x_1_3_8 - x_2_3_8 + x_3_0_8 + x_3_1_8 + x_3_2_8  = 0
 c45:  - x_0_3_9 - x_1_3_9 - x_2_3_9 + x_3_0_9 + x_3_1_9 + x_3_2_9  = 0
 c46:  x_1_0_0 + x_1_1_0 + x_1_2_0 + x_1_3_0 + x_2_0_0 + x_2_1_0 + x_2_2_0
       + x_2_3_0 + x_3_0_0 + x_3_1_0 + x_3_2_0 + x_3_3_0 <= 50
 c48:  x_1_0_1 + x_1_1_1 + x_1_2_1 + x_1_3_1 + x_2_0_1 + x_2_1_1 + x_2_2_1
       + x_2_3_1 + x_3_0_1 + x_3_1_1 + x_3_2_1 + x_3_3_1 <= 50
 c50:  x_1_0_2 + x_1_1_2 + x_1_2_2 + x_1_3_2 + x_2_0_2 + x_2_1_2 + x_2_2_2
       + x_2_3_2 + x_3_0_2 + x_3_1_2 + x_3_2_2 + x_3_3_2 <= 50
 c52:  x_1_0_3 + x_1_1_3 + x_1_2_3 + x_1_3_3 + x_2_0_3 + x_2_1_3 + x_2_2_3
       + x_2_3_3 + x_3_0_3 + x_3_1_3 + x_3_2_3 + x_3_3_3 <= 50
 c54:  x_1_0_4 + x_1_1_4 + x_1_2_4 + x_1_3_4 + x_2_0_4 + x_2_1_4 + x_2_2_4
       + x_2_3_4 + x_3_0_4 + x_3_1_4 + x_3_2_4 + x_3_3_4 <= 50
 c56:  x_1_0_5 + x_1_1_5 + x_1_2_5 + x_1_3_5 + x_2_0_5 + x_2_1_5 + x_2_2_5
       + x_2_3_5 + x_3_0_5 + x_3_1_5 + x_3_2_5 + x_3_3_5 <= 50
 c58:  x_1_0_6 + x_1_1_6 + x_1_2_6 + x_1_3_6 + x_2_0_6 + x_2_1_6 + x_2_2_6
       + x_2_3_6 + x_3_0_6 + x_3_1_6 + x_3_2_6 + x_3_3_6 <= 50
 c60:  x_1_0_7 + x_1_1_7 + x_1_2_7 + x_1_3_7 + x_2_0_7 + x_2_1_7 + x_2_2_7
       + x_2_3_7 + x_3_0_7 + x_3_1_7 + x_3_2_7 + x_3_3_7 <= 50
 c62:  x_1_0_8 + x_1_1_8 + x_1_2_8 + x_1_3_8 + x_2_0_8 + x_2_1_8 + x_2_2_8
       + x_2_3_8 + x_3_0_8 + x_3_1_8 + x_3_2_8 + x_3_3_8 <= 50
 c64:  x_1_0_9 + x_1_1_9 + x_1_2_9 + x_1_3_9 + x_2_0_9 + x_2_1_9 + x_2_2_9
       + x_2_3_9 + x_3_0_9 + x_3_1_9 + x_3_2_9 + x_3_3_9 <= 50
 c66:  101 x_0_1_0 + 101 x_0_1_1 + 101 x_0_1_2 + 101 x_0_1_3 + 101 x_0_1_4
       + 101 x_0_1_5 + 101 x_0_1_6 + 101 x_0_1_7 + 101 x_0_1_8 + 101 x_0_1_9
       + t_0 - t_1 <= 100
 c68:  102 x_0_2_0 + 102 x_0_2_1 + 102 x_0_2_2 + 102 x_0_2_3 + 102 x_0_2_4
       + 102 x_0_2_5 + 102 x_0_2_6 + 102 x_0_2_7 + 102 x_0_2_8 + 102 x_0_2_9
       + t_0 - t_2 <= 100
 c70:  103 x_0_3_0 + 103 x_0_3_1 + 103 x_0_3_2 + 103 x_0_3_3 + 103 x_0_3_4
       + 103 x_0_3_5 + 103 x_0_3_6 + 103 x_0_3_7 + 103 x_0_3_8 + 103 x_0_3_9
       + t_0 - t_3 <= 100
 c72:  31 x_1_1_0 + 31 x_1_1_1 + 31 x_1_1_2 + 31 x_1_1_3 + 31 x_1_1_4
       + 31 x_1_1_5 + 31 x_1_1_6 + 31 x_1_1_7 + 31 x_1_1_8 + 31 x_1_1_9 <= 30
 c74:  34 x_1_2_0 + 34 x_1_2_1 + 34 x_1_2_2 + 34 x_1_2_3 + 34 x_1_2_4
       + 34 x_1_2_5 + 34 x_1_2_6 + 34 x_1_2_7 + 34 x_1_2_8 + 34 x_1_2_9 + t_1
       - t_2 <= 30
 c76:  33 x_1_3_0 + 33 x_1_3_1 + 33 x_1_3_2 + 33 x_1_3_3 + 33 x_1_3_4
       + 33 x_1_3_5 + 33 x_1_3_6 + 33 x_1_3_7 + 33 x_1_3_8 + 33 x_1_3_9 + t_1
       - t_3 <= 30
 c78:  24 x_2_1_0 + 24 x_2_1_1 + 24 x_2_1_2 + 24 x_2_1_3 + 24 x_2_1_4
       + 24 x_2_1_5 + 24 x_2_1_6 + 24 x_2_1_7 + 24 x_2_1_8 + 24 x_2_1_9 - t_1
       + t_2 <= 20
 c80:  21 x_2_2_0 + 21 x_2_2_1 + 21 x_2_2_2 + 21 x_2_2_3 + 21 x_2_2_4
       + 21 x_2_2_5 + 21 x_2_2_6 + 21 x_2_2_7 + 21 x_2_2_8 + 21 x_2_2_9 <= 20
 c82:  22 x_2_3_0 + 22 x_2_3_1 + 22 x_2_3_2 + 22 x_2_3_3 + 22 x_2_3_4
       + 22 x_2_3_5 + 22 x_2_3_6 + 22 x_2_3_7 + 22 x_2_3_8 + 22 x_2_3_9 + t_2
       - t_3 <= 20
 c84:  13 x_3_1_0 + 13 x_3_1_1 + 13 x_3_1_2 + 13 x_3_1_3 + 13 x_3_1_4
       + 13 x_3_1_5 + 13 x_3_1_6 + 13 x_3_1_7 + 13 x_3_1_8 + 13 x_3_1_9 - t_1
       + t_3 <= 10
 c86:  12 x_3_2_0 + 12 x_3_2_1 + 12 x_3_2_2 + 12 x_3_2_3 + 12 x_3_2_4
       + 12 x_3_2_5 + 12 x_3_2_6 + 12 x_3_2_7 + 12 x_3_2_8 + 12 x_3_2_9 - t_2
       + t_3 <= 10
 c88:  11 x_3_3_0 + 11 x_3_3_1 + 11 x_3_3_2 + 11 x_3_3_3 + 11 x_3_3_4
       + 11 x_3_3_5 + 11 x_3_3_6 + 11 x_3_3_7 + 11 x_3_3_8 + 11 x_3_3_9 <= 10
 c90:  t_0 <= 100
 c92:  t_0 >= 0
 c94:  t_1 <= 30
 c96:  t_1 >= 0
 c98:  t_2 <= 20
 c100: t_2 >= 0
 c102: t_3 <= 10
 c104: t_3 >= 0
Bounds
 0 <= x_0_1_0 <= 1
 0 <= x_0_1_1 <= 1
 0 <= x_0_1_2 <= 1
 0 <= x_0_1_3 <= 1
 0 <= x_0_1_4 <= 1
 0 <= x_0_1_5 <= 1
 0 <= x_0_1_6 <= 1
 0 <= x_0_1_7 <= 1
 0 <= x_0_1_8 <= 1
 0 <= x_0_1_9 <= 1
 0 <= x_0_2_0 <= 1
 0 <= x_0_2_1 <= 1
 0 <= x_0_2_2 <= 1
 0 <= x_0_2_3 <= 1
 0 <= x_0_2_4 <= 1
 0 <= x_0_2_5 <= 1
 0 <= x_0_2_6 <= 1
 0 <= x_0_2_7 <= 1
 0 <= x_0_2_8 <= 1
 0 <= x_0_2_9 <= 1
 0 <= x_0_3_0 <= 1
 0 <= x_0_3_1 <= 1
 0 <= x_0_3_2 <= 1
 0 <= x_0_3_3 <= 1
 0 <= x_0_3_4 <= 1
 0 <= x_0_3_5 <= 1
 0 <= x_0_3_6 <= 1
 0 <= x_0_3_7 <= 1
 0 <= x_0_3_8 <= 1
 0 <= x_0_3_9 <= 1
 0 <= x_0_0_0 <= 1
 0 <= x_1_0_0 <= 1
 0 <= x_1_1_0 <= 1
 0 <= x_1_2_0 <= 1
 0 <= x_1_3_0 <= 1
 0 <= x_2_0_0 <= 1
 0 <= x_2_1_0 <= 1
 0 <= x_2_2_0 <= 1
 0 <= x_2_3_0 <= 1
 0 <= x_3_0_0 <= 1
 0 <= x_3_1_0 <= 1
 0 <= x_3_2_0 <= 1
 0 <= x_3_3_0 <= 1
 0 <= x_0_0_1 <= 1
 0 <= x_1_0_1 <= 1
 0 <= x_1_1_1 <= 1
 0 <= x_1_2_1 <= 1
 0 <= x_1_3_1 <= 1
 0 <= x_2_0_1 <= 1
 0 <= x_2_1_1 <= 1
 0 <= x_2_2_1 <= 1
 0 <= x_2_3_1 <= 1
 0 <= x_3_0_1 <= 1
 0 <= x_3_1_1 <= 1
 0 <= x_3_2_1 <= 1
 0 <= x_3_3_1 <= 1
 0 <= x_0_0_2 <= 1
 0 <= x_1_0_2 <= 1
 0 <= x_1_1_2 <= 1
 0 <= x_1_2_2 <= 1
 0 <= x_1_3_2 <= 1
 0 <= x_2_0_2 <= 1
 0 <= x_2_1_2 <= 1
 0 <= x_2_2_2 <= 1
 0 <= x_2_3_2 <= 1
 0 <= x_3_0_2 <= 1
 0 <= x_3_1_2 <= 1
 0 <= x_3_2_2 <= 1
 0 <= x_3_3_2 <= 1
 0 <= x_0_0_3 <= 1
 0 <= x_1_0_3 <= 1
 0 <= x_1_1_3 <= 1
 0 <= x_1_2_3 <= 1
 0 <= x_1_3_3 <= 1
 0 <= x_2_0_3 <= 1
 0 <= x_2_1_3 <= 1
 0 <= x_2_2_3 <= 1
 0 <= x_2_3_3 <= 1
 0 <= x_3_0_3 <= 1
 0 <= x_3_1_3 <= 1
 0 <= x_3_2_3 <= 1
 0 <= x_3_3_3 <= 1
 0 <= x_0_0_4 <= 1
 0 <= x_1_0_4 <= 1
 0 <= x_1_1_4 <= 1
 0 <= x_1_2_4 <= 1
 0 <= x_1_3_4 <= 1
 0 <= x_2_0_4 <= 1
 0 <= x_2_1_4 <= 1
 0 <= x_2_2_4 <= 1
 0 <= x_2_3_4 <= 1
 0 <= x_3_0_4 <= 1
 0 <= x_3_1_4 <= 1
 0 <= x_3_2_4 <= 1
 0 <= x_3_3_4 <= 1
 0 <= x_0_0_5 <= 1
 0 <= x_1_0_5 <= 1
 0 <= x_1_1_5 <= 1
 0 <= x_1_2_5 <= 1
 0 <= x_1_3_5 <= 1
 0 <= x_2_0_5 <= 1
 0 <= x_2_1_5 <= 1
 0 <= x_2_2_5 <= 1
 0 <= x_2_3_5 <= 1
 0 <= x_3_0_5 <= 1
 0 <= x_3_1_5 <= 1
 0 <= x_3_2_5 <= 1
 0 <= x_3_3_5 <= 1
 0 <= x_0_0_6 <= 1
 0 <= x_1_0_6 <= 1
 0 <= x_1_1_6 <= 1
 0 <= x_1_2_6 <= 1
 0 <= x_1_3_6 <= 1
 0 <= x_2_0_6 <= 1
 0 <= x_2_1_6 <= 1
 0 <= x_2_2_6 <= 1
 0 <= x_2_3_6 <= 1
 0 <= x_3_0_6 <= 1
 0 <= x_3_1_6 <= 1
 0 <= x_3_2_6 <= 1
 0 <= x_3_3_6 <= 1
 0 <= x_0_0_7 <= 1
 0 <= x_1_0_7 <= 1
 0 <= x_1_1_7 <= 1
 0 <= x_1_2_7 <= 1
 0 <= x_1_3_7 <= 1
 0 <= x_2_0_7 <= 1
 0 <= x_2_1_7 <= 1
 0 <= x_2_2_7 <= 1
 0 <= x_2_3_7 <= 1
 0 <= x_3_0_7 <= 1
 0 <= x_3_1_7 <= 1
 0 <= x_3_2_7 <= 1
 0 <= x_3_3_7 <= 1
 0 <= x_0_0_8 <= 1
 0 <= x_1_0_8 <= 1
 0 <= x_1_1_8 <= 1
 0 <= x_1_2_8 <= 1
 0 <= x_1_3_8 <= 1
 0 <= x_2_0_8 <= 1
 0 <= x_2_1_8 <= 1
 0 <= x_2_2_8 <= 1
 0 <= x_2_3_8 <= 1
 0 <= x_3_0_8 <= 1
 0 <= x_3_1_8 <= 1
 0 <= x_3_2_8 <= 1
 0 <= x_3_3_8 <= 1
 0 <= x_0_0_9 <= 1
 0 <= x_1_0_9 <= 1
 0 <= x_1_1_9 <= 1
 0 <= x_1_2_9 <= 1
 0 <= x_1_3_9 <= 1
 0 <= x_2_0_9 <= 1
 0 <= x_2_1_9 <= 1
 0 <= x_2_2_9 <= 1
 0 <= x_2_3_9 <= 1
 0 <= x_3_0_9 <= 1
 0 <= x_3_1_9 <= 1
 0 <= x_3_2_9 <= 1
 0 <= x_3_3_9 <= 1
Binaries
 x_0_1_0  x_0_1_1  x_0_1_2  x_0_1_3  x_0_1_4  x_0_1_5  x_0_1_6  x_0_1_7 
 x_0_1_8  x_0_1_9  x_0_2_0  x_0_2_1  x_0_2_2  x_0_2_3  x_0_2_4  x_0_2_5 
 x_0_2_6  x_0_2_7  x_0_2_8  x_0_2_9  x_0_3_0  x_0_3_1  x_0_3_2  x_0_3_3 
 x_0_3_4  x_0_3_5  x_0_3_6  x_0_3_7  x_0_3_8  x_0_3_9  x_0_0_0  x_1_0_0 
 x_1_1_0  x_1_2_0  x_1_3_0  x_2_0_0  x_2_1_0  x_2_2_0  x_2_3_0  x_3_0_0 
 x_3_1_0  x_3_2_0  x_3_3_0  x_0_0_1  x_1_0_1  x_1_1_1  x_1_2_1  x_1_3_1 
 x_2_0_1  x_2_1_1  x_2_2_1  x_2_3_1  x_3_0_1  x_3_1_1  x_3_2_1  x_3_3_1 
 x_0_0_2  x_1_0_2  x_1_1_2  x_1_2_2  x_1_3_2  x_2_0_2  x_2_1_2  x_2_2_2 
 x_2_3_2  x_3_0_2  x_3_1_2  x_3_2_2  x_3_3_2  x_0_0_3  x_1_0_3  x_1_1_3 
 x_1_2_3  x_1_3_3  x_2_0_3  x_2_1_3  x_2_2_3  x_2_3_3  x_3_0_3  x_3_1_3 
 x_3_2_3  x_3_3_3  x_0_0_4  x_1_0_4  x_1_1_4  x_1_2_4  x_1_3_4  x_2_0_4 
 x_2_1_4  x_2_2_4  x_2_3_4  x_3_0_4  x_3_1_4  x_3_2_4  x_3_3_4  x_0_0_5 
 x_1_0_5  x_1_1_5  x_1_2_5  x_1_3_5  x_2_0_5  x_2_1_5  x_2_2_5  x_2_3_5 
 x_3_0_5  x_3_1_5  x_3_2_5  x_3_3_5  x_0_0_6  x_1_0_6  x_1_1_6  x_1_2_6 
 x_1_3_6  x_2_0_6  x_2_1_6  x_2_2_6  x_2_3_6  x_3_0_6  x_3_1_6  x_3_2_6 
 x_3_3_6  x_0_0_7  x_1_0_7  x_1_1_7  x_1_2_7  x_1_3_7  x_2_0_7  x_2_1_7 
 x_2_2_7  x_2_3_7  x_3_0_7  x_3_1_7  x_3_2_7  x_3_3_7  x_0_0_8  x_1_0_8 
 x_1_1_8  x_1_2_8  x_1_3_8  x_2_0_8  x_2_1_8  x_2_2_8  x_2_3_8  x_3_0_8 
 x_3_1_8  x_3_2_8  x_3_3_8  x_0_0_9  x_1_0_9  x_1_1_9  x_1_2_9  x_1_3_9 
 x_2_0_9  x_2_1_9  x_2_2_9  x_2_3_9  x_3_0_9  x_3_1_9  x_3_2_9  x_3_3_9 
End
